
Gurobi 7.0.2 (linux64, Matlab) logging started Sun Sep  2 08:55:55 2018


Gurobi 7.0.2 (linux64) logging started Sun Sep  2 08:55:55 2018

Optimize a model with 129647 rows, 567095 columns and 1349518 nonzeros
Coefficient statistics:
  Matrix range     [1e+00, 6e+01]
  Objective range  [1e-06, 1e+01]
  Bounds range     [1e+00, 1e+00]
  RHS range        [1e+00, 1e+00]
Iteration    Objective       Primal Inf.    Dual Inf.      Time
       0   -9.2027376e+02   0.000000e+00   0.000000e+00      0s

Solved in 0 iterations and 0.15 seconds
Optimal objective -9.202737625e+02
